(set-info :category "industrial")
(set-info :status sat)
(declare-fun x02 () (_ BitVec 8))
(declare-fun x04 () (_ BitVec 8))
(declare-fun x05 () (_ BitVec 8))
(declare-fun x08 () (_ BitVec 8))
(declare-fun x11 () (_ BitVec 8))
(declare-fun x12 () (_ BitVec 8))
(declare-fun x16 () (_ BitVec 8))
(declare-fun x18 () (_ BitVec 8))
(declare-fun x20 () (_ BitVec 8))
(declare-fun x21 () (_ BitVec 8))
(declare-fun x22 () (_ BitVec 8))
(declare-fun x23 () (_ BitVec 8))
(declare-fun x24 () (_ BitVec 8))
(declare-fun x27 () (_ BitVec 8))
(declare-fun x31 () (_ BitVec 8))
(declare-fun x32 () (_ BitVec 8))
(declare-fun x33 () (_ BitVec 8))
(declare-fun x34 () (_ BitVec 8))
(declare-fun x35 () (_ BitVec 8))
(declare-fun x37 () (_ BitVec 8))
(declare-fun x38 () (_ BitVec 8))
(declare-fun x40 () (_ BitVec 8))
(declare-fun x41 () (_ BitVec 8))
(declare-fun x43 () (_ BitVec 8))
(declare-fun x44 () (_ BitVec 8))
(declare-fun x46 () (_ BitVec 8))
(declare-fun x50 () (_ BitVec 8))
(declare-fun x51 () (_ BitVec 8))
(declare-fun x55 () (_ BitVec 8))
(declare-fun x56 () (_ BitVec 8))
(declare-fun x58 () (_ BitVec 8))
(declare-fun x60 () (_ BitVec 8))
(declare-fun x62 () (_ BitVec 8))
(declare-fun x63 () (_ BitVec 8))
(declare-fun x65 () (_ BitVec 8))
(declare-fun x66 () (_ BitVec 8))
(declare-fun x67 () (_ BitVec 8))
(declare-fun x68 () (_ BitVec 8))
(declare-fun x71 () (_ BitVec 8))
(declare-fun x72 () (_ BitVec 8))
(declare-fun x74 () (_ BitVec 8))
(declare-fun x76 () (_ BitVec 8))
(declare-fun x78 () (_ BitVec 8))
(declare-fun x80 () (_ BitVec 8))
(declare-fun x82 () (_ BitVec 8))
(declare-fun x83 () (_ BitVec 8))
(declare-fun x84 () (_ BitVec 8))
(assert (bvult x02 (_ bv9 8)))
(assert (bvult x04 (_ bv9 8)))
(assert (bvult x05 (_ bv9 8)))
(assert (bvult x08 (_ bv9 8)))
(assert (bvult x11 (_ bv9 8)))
(assert (bvult x12 (_ bv9 8)))
(assert (bvult x16 (_ bv9 8)))
(assert (bvult x18 (_ bv9 8)))
(assert (bvult x20 (_ bv9 8)))
(assert (bvult x21 (_ bv9 8)))
(assert (bvult x22 (_ bv9 8)))
(assert (bvult x23 (_ bv9 8)))
(assert (bvult x24 (_ bv9 8)))
(assert (bvult x27 (_ bv9 8)))
(assert (bvult x31 (_ bv9 8)))
(assert (bvult x32 (_ bv9 8)))
(assert (bvult x33 (_ bv9 8)))
(assert (bvult x34 (_ bv9 8)))
(assert (bvult x35 (_ bv9 8)))
(assert (bvult x37 (_ bv9 8)))
(assert (bvult x38 (_ bv9 8)))
(assert (bvult x40 (_ bv9 8)))
(assert (bvult x41 (_ bv9 8)))
(assert (bvult x43 (_ bv9 8)))
(assert (bvult x44 (_ bv9 8)))
(assert (bvult x46 (_ bv9 8)))
(assert (bvult x50 (_ bv9 8)))
(assert (bvult x51 (_ bv9 8)))
(assert (bvult x55 (_ bv9 8)))
(assert (bvult x56 (_ bv9 8)))
(assert (bvult x58 (_ bv9 8)))
(assert (bvult x60 (_ bv9 8)))
(assert (bvult x62 (_ bv9 8)))
(assert (bvult x63 (_ bv9 8)))
(assert (bvult x65 (_ bv9 8)))
(assert (bvult x66 (_ bv9 8)))
(assert (bvult x67 (_ bv9 8)))
(assert (bvult x68 (_ bv9 8)))
(assert (bvult x71 (_ bv9 8)))
(assert (bvult x72 (_ bv9 8)))
(assert (bvult x74 (_ bv9 8)))
(assert (bvult x76 (_ bv9 8)))
(assert (bvult x78 (_ bv9 8)))
(assert (bvult x80 (_ bv9 8)))
(assert (bvult x82 (_ bv9 8)))
(assert (bvult x83 (_ bv9 8)))
(assert (bvult x84 (_ bv9 8)))
(assert (not (= (_ bv2 8) (_ bv7 8))))
(assert (not (= (_ bv2 8) x02)))
(assert (not (= (_ bv2 8) (_ bv5 8))))
(assert (not (= (_ bv2 8) x04)))
(assert (not (= (_ bv2 8) x05)))
(assert (not (= (_ bv2 8) (_ bv6 8))))
(assert (not (= (_ bv2 8) (_ bv3 8))))
(assert (not (= (_ bv2 8) x08)))
(assert (not (= (_ bv7 8) x02)))
(assert (not (= (_ bv7 8) (_ bv5 8))))
(assert (not (= (_ bv7 8) x04)))
(assert (not (= (_ bv7 8) x05)))
(assert (not (= (_ bv7 8) (_ bv6 8))))
(assert (not (= (_ bv7 8) (_ bv3 8))))
(assert (not (= (_ bv7 8) x08)))
(assert (not (= x02 (_ bv5 8))))
(assert (not (= x02 x04)))
(assert (not (= x02 x05)))
(assert (not (= x02 (_ bv6 8))))
(assert (not (= x02 (_ bv3 8))))
(assert (not (= x02 x08)))
(assert (not (= (_ bv5 8) x04)))
(assert (not (= (_ bv5 8) x05)))
(assert (not (= (_ bv5 8) (_ bv6 8))))
(assert (not (= (_ bv5 8) (_ bv3 8))))
(assert (not (= (_ bv5 8) x08)))
(assert (not (= x04 x05)))
(assert (not (= x04 (_ bv6 8))))
(assert (not (= x04 (_ bv3 8))))
(assert (not (= x04 x08)))
(assert (not (= x05 (_ bv6 8))))
(assert (not (= x05 (_ bv3 8))))
(assert (not (= x05 x08)))
(assert (not (= (_ bv6 8) (_ bv3 8))))
(assert (not (= (_ bv6 8) x08)))
(assert (not (= (_ bv3 8) x08)))
(assert (not (= (_ bv4 8) x11)))
(assert (not (= (_ bv4 8) x12)))
(assert (not (= (_ bv4 8) (_ bv7 8))))
(assert (not (= (_ bv4 8) (_ bv8 8))))
(assert (not (= (_ bv4 8) (_ bv9 8))))
(assert (not (= (_ bv4 8) x16)))
(assert (not (= (_ bv4 8) (_ bv1 8))))
(assert (not (= (_ bv4 8) x18)))
(assert (not (= x11 x12)))
(assert (not (= x11 (_ bv7 8))))
(assert (not (= x11 (_ bv8 8))))
(assert (not (= x11 (_ bv9 8))))
(assert (not (= x11 x16)))
(assert (not (= x11 (_ bv1 8))))
(assert (not (= x11 x18)))
(assert (not (= x12 (_ bv7 8))))
(assert (not (= x12 (_ bv8 8))))
(assert (not (= x12 (_ bv9 8))))
(assert (not (= x12 x16)))
(assert (not (= x12 (_ bv1 8))))
(assert (not (= x12 x18)))
(assert (not (= (_ bv7 8) (_ bv8 8))))
(assert (not (= (_ bv7 8) (_ bv9 8))))
(assert (not (= (_ bv7 8) x16)))
(assert (not (= (_ bv7 8) (_ bv1 8))))
(assert (not (= (_ bv7 8) x18)))
(assert (not (= (_ bv8 8) (_ bv9 8))))
(assert (not (= (_ bv8 8) x16)))
(assert (not (= (_ bv8 8) (_ bv1 8))))
(assert (not (= (_ bv8 8) x18)))
(assert (not (= (_ bv9 8) x16)))
(assert (not (= (_ bv9 8) (_ bv1 8))))
(assert (not (= (_ bv9 8) x18)))
(assert (not (= x16 (_ bv1 8))))
(assert (not (= x16 x18)))
(assert (not (= (_ bv1 8) x18)))
(assert (not (= x20 x21)))
(assert (not (= x20 x22)))
(assert (not (= x20 x23)))
(assert (not (= x20 x24)))
(assert (not (= x20 (_ bv6 8))))
(assert (not (= x20 (_ bv8 8))))
(assert (not (= x20 x27)))
(assert (not (= x20 (_ bv4 8))))
(assert (not (= x21 x22)))
(assert (not (= x21 x23)))
(assert (not (= x21 x24)))
(assert (not (= x21 (_ bv6 8))))
(assert (not (= x21 (_ bv8 8))))
(assert (not (= x21 x27)))
(assert (not (= x21 (_ bv4 8))))
(assert (not (= x22 x23)))
(assert (not (= x22 x24)))
(assert (not (= x22 (_ bv6 8))))
(assert (not (= x22 (_ bv8 8))))
(assert (not (= x22 x27)))
(assert (not (= x22 (_ bv4 8))))
(assert (not (= x23 x24)))
(assert (not (= x23 (_ bv6 8))))
(assert (not (= x23 (_ bv8 8))))
(assert (not (= x23 x27)))
(assert (not (= x23 (_ bv4 8))))
(assert (not (= x24 (_ bv6 8))))
(assert (not (= x24 (_ bv8 8))))
(assert (not (= x24 x27)))
(assert (not (= x24 (_ bv4 8))))
(assert (not (= (_ bv6 8) (_ bv8 8))))
(assert (not (= (_ bv6 8) x27)))
(assert (not (= (_ bv6 8) (_ bv4 8))))
(assert (not (= (_ bv8 8) x27)))
(assert (not (= (_ bv8 8) (_ bv4 8))))
(assert (not (= x27 (_ bv4 8))))
(assert (not (= (_ bv7 8) x31)))
(assert (not (= (_ bv7 8) x32)))
(assert (not (= (_ bv7 8) x33)))
(assert (not (= (_ bv7 8) x34)))
(assert (not (= (_ bv7 8) x35)))
(assert (not (= (_ bv7 8) (_ bv1 8))))
(assert (not (= (_ bv7 8) x37)))
(assert (not (= (_ bv7 8) x38)))
(assert (not (= x31 x32)))
(assert (not (= x31 x33)))
(assert (not (= x31 x34)))
(assert (not (= x31 x35)))
(assert (not (= x31 (_ bv1 8))))
(assert (not (= x31 x37)))
(assert (not (= x31 x38)))
(assert (not (= x32 x33)))
(assert (not (= x32 x34)))
(assert (not (= x32 x35)))
(assert (not (= x32 (_ bv1 8))))
(assert (not (= x32 x37)))
(assert (not (= x32 x38)))
(assert (not (= x33 x34)))
(assert (not (= x33 x35)))
(assert (not (= x33 (_ bv1 8))))
(assert (not (= x33 x37)))
(assert (not (= x33 x38)))
(assert (not (= x34 x35)))
(assert (not (= x34 (_ bv1 8))))
(assert (not (= x34 x37)))
(assert (not (= x34 x38)))
(assert (not (= x35 (_ bv1 8))))
(assert (not (= x35 x37)))
(assert (not (= x35 x38)))
(assert (not (= (_ bv1 8) x37)))
(assert (not (= (_ bv1 8) x38)))
(assert (not (= x37 x38)))
(assert (not (= x40 x41)))
(assert (not (= x40 (_ bv9 8))))
(assert (not (= x40 x43)))
(assert (not (= x40 x44)))
(assert (not (= x40 (_ bv4 8))))
(assert (not (= x40 x46)))
(assert (not (= x40 (_ bv6 8))))
(assert (not (= x40 (_ bv8 8))))
(assert (not (= x41 (_ bv9 8))))
(assert (not (= x41 x43)))
(assert (not (= x41 x44)))
(assert (not (= x41 (_ bv4 8))))
(assert (not (= x41 x46)))
(assert (not (= x41 (_ bv6 8))))
(assert (not (= x41 (_ bv8 8))))
(assert (not (= (_ bv9 8) x43)))
(assert (not (= (_ bv9 8) x44)))
(assert (not (= (_ bv9 8) (_ bv4 8))))
(assert (not (= (_ bv9 8) x46)))
(assert (not (= (_ bv9 8) (_ bv6 8))))
(assert (not (= (_ bv9 8) (_ bv8 8))))
(assert (not (= x43 x44)))
(assert (not (= x43 (_ bv4 8))))
(assert (not (= x43 x46)))
(assert (not (= x43 (_ bv6 8))))
(assert (not (= x43 (_ bv8 8))))
(assert (not (= x44 (_ bv4 8))))
(assert (not (= x44 x46)))
(assert (not (= x44 (_ bv6 8))))
(assert (not (= x44 (_ bv8 8))))
(assert (not (= (_ bv4 8) x46)))
(assert (not (= (_ bv4 8) (_ bv6 8))))
(assert (not (= (_ bv4 8) (_ bv8 8))))
(assert (not (= x46 (_ bv6 8))))
(assert (not (= x46 (_ bv8 8))))
(assert (not (= (_ bv6 8) (_ bv8 8))))
(assert (not (= x50 x51)))
(assert (not (= x50 (_ bv6 8))))
(assert (not (= x50 (_ bv1 8))))
(assert (not (= x50 (_ bv3 8))))
(assert (not (= x50 x55)))
(assert (not (= x50 x56)))
(assert (not (= x50 (_ bv5 8))))
(assert (not (= x50 x58)))
(assert (not (= x51 (_ bv6 8))))
(assert (not (= x51 (_ bv1 8))))
(assert (not (= x51 (_ bv3 8))))
(assert (not (= x51 x55)))
(assert (not (= x51 x56)))
(assert (not (= x51 (_ bv5 8))))
(assert (not (= x51 x58)))
(assert (not (= (_ bv6 8) (_ bv1 8))))
(assert (not (= (_ bv6 8) (_ bv3 8))))
(assert (not (= (_ bv6 8) x55)))
(assert (not (= (_ bv6 8) x56)))
(assert (not (= (_ bv6 8) (_ bv5 8))))
(assert (not (= (_ bv6 8) x58)))
(assert (not (= (_ bv1 8) (_ bv3 8))))
(assert (not (= (_ bv1 8) x55)))
(assert (not (= (_ bv1 8) x56)))
(assert (not (= (_ bv1 8) (_ bv5 8))))
(assert (not (= (_ bv1 8) x58)))
(assert (not (= (_ bv3 8) x55)))
(assert (not (= (_ bv3 8) x56)))
(assert (not (= (_ bv3 8) (_ bv5 8))))
(assert (not (= (_ bv3 8) x58)))
(assert (not (= x55 x56)))
(assert (not (= x55 (_ bv5 8))))
(assert (not (= x55 x58)))
(assert (not (= x56 (_ bv5 8))))
(assert (not (= x56 x58)))
(assert (not (= (_ bv5 8) x58)))
(assert (not (= x60 (_ bv2 8))))
(assert (not (= x60 x62)))
(assert (not (= x60 x63)))
(assert (not (= x60 (_ bv6 8))))
(assert (not (= x60 x65)))
(assert (not (= x60 x66)))
(assert (not (= x60 x67)))
(assert (not (= x60 x68)))
(assert (not (= (_ bv2 8) x62)))
(assert (not (= (_ bv2 8) x63)))
(assert (not (= (_ bv2 8) (_ bv6 8))))
(assert (not (= (_ bv2 8) x65)))
(assert (not (= (_ bv2 8) x66)))
(assert (not (= (_ bv2 8) x67)))
(assert (not (= (_ bv2 8) x68)))
(assert (not (= x62 x63)))
(assert (not (= x62 (_ bv6 8))))
(assert (not (= x62 x65)))
(assert (not (= x62 x66)))
(assert (not (= x62 x67)))
(assert (not (= x62 x68)))
(assert (not (= x63 (_ bv6 8))))
(assert (not (= x63 x65)))
(assert (not (= x63 x66)))
(assert (not (= x63 x67)))
(assert (not (= x63 x68)))
(assert (not (= (_ bv6 8) x65)))
(assert (not (= (_ bv6 8) x66)))
(assert (not (= (_ bv6 8) x67)))
(assert (not (= (_ bv6 8) x68)))
(assert (not (= x65 x66)))
(assert (not (= x65 x67)))
(assert (not (= x65 x68)))
(assert (not (= x66 x67)))
(assert (not (= x66 x68)))
(assert (not (= x67 x68)))
(assert (not (= (_ bv1 8) x71)))
(assert (not (= (_ bv1 8) x72)))
(assert (not (= (_ bv1 8) (_ bv9 8))))
(assert (not (= (_ bv1 8) x74)))
(assert (not (= (_ bv1 8) (_ bv5 8))))
(assert (not (= (_ bv1 8) x76)))
(assert (not (= (_ bv1 8) (_ bv2 8))))
(assert (not (= (_ bv1 8) x78)))
(assert (not (= x71 x72)))
(assert (not (= x71 (_ bv9 8))))
(assert (not (= x71 x74)))
(assert (not (= x71 (_ bv5 8))))
(assert (not (= x71 x76)))
(assert (not (= x71 (_ bv2 8))))
(assert (not (= x71 x78)))
(assert (not (= x72 (_ bv9 8))))
(assert (not (= x72 x74)))
(assert (not (= x72 (_ bv5 8))))
(assert (not (= x72 x76)))
(assert (not (= x72 (_ bv2 8))))
(assert (not (= x72 x78)))
(assert (not (= (_ bv9 8) x74)))
(assert (not (= (_ bv9 8) (_ bv5 8))))
(assert (not (= (_ bv9 8) x76)))
(assert (not (= (_ bv9 8) (_ bv2 8))))
(assert (not (= (_ bv9 8) x78)))
(assert (not (= x74 (_ bv5 8))))
(assert (not (= x74 x76)))
(assert (not (= x74 (_ bv2 8))))
(assert (not (= x74 x78)))
(assert (not (= (_ bv5 8) x76)))
(assert (not (= (_ bv5 8) (_ bv2 8))))
(assert (not (= (_ bv5 8) x78)))
(assert (not (= x76 (_ bv2 8))))
(assert (not (= x76 x78)))
(assert (not (= (_ bv2 8) x78)))
(assert (not (= x80 (_ bv3 8))))
(assert (not (= x80 x82)))
(assert (not (= x80 x83)))
(assert (not (= x80 x84)))
(assert (not (= x80 (_ bv2 8))))
(assert (not (= x80 (_ bv4 8))))
(assert (not (= x80 (_ bv9 8))))
(assert (not (= x80 (_ bv7 8))))
(assert (not (= (_ bv3 8) x82)))
(assert (not (= (_ bv3 8) x83)))
(assert (not (= (_ bv3 8) x84)))
(assert (not (= (_ bv3 8) (_ bv2 8))))
(assert (not (= (_ bv3 8) (_ bv4 8))))
(assert (not (= (_ bv3 8) (_ bv9 8))))
(assert (not (= (_ bv3 8) (_ bv7 8))))
(assert (not (= x82 x83)))
(assert (not (= x82 x84)))
(assert (not (= x82 (_ bv2 8))))
(assert (not (= x82 (_ bv4 8))))
(assert (not (= x82 (_ bv9 8))))
(assert (not (= x82 (_ bv7 8))))
(assert (not (= x83 x84)))
(assert (not (= x83 (_ bv2 8))))
(assert (not (= x83 (_ bv4 8))))
(assert (not (= x83 (_ bv9 8))))
(assert (not (= x83 (_ bv7 8))))
(assert (not (= x84 (_ bv2 8))))
(assert (not (= x84 (_ bv4 8))))
(assert (not (= x84 (_ bv9 8))))
(assert (not (= x84 (_ bv7 8))))
(assert (not (= (_ bv2 8) (_ bv4 8))))
(assert (not (= (_ bv2 8) (_ bv9 8))))
(assert (not (= (_ bv2 8) (_ bv7 8))))
(assert (not (= (_ bv4 8) (_ bv9 8))))
(assert (not (= (_ bv4 8) (_ bv7 8))))
(assert (not (= (_ bv9 8) (_ bv7 8))))
(assert (not (= (_ bv2 8) (_ bv4 8))))
(assert (not (= (_ bv2 8) x20)))
(assert (not (= (_ bv2 8) (_ bv7 8))))
(assert (not (= (_ bv2 8) x40)))
(assert (not (= (_ bv2 8) x50)))
(assert (not (= (_ bv2 8) x60)))
(assert (not (= (_ bv2 8) (_ bv1 8))))
(assert (not (= (_ bv2 8) x80)))
(assert (not (= (_ bv4 8) x20)))
(assert (not (= (_ bv4 8) (_ bv7 8))))
(assert (not (= (_ bv4 8) x40)))
(assert (not (= (_ bv4 8) x50)))
(assert (not (= (_ bv4 8) x60)))
(assert (not (= (_ bv4 8) (_ bv1 8))))
(assert (not (= (_ bv4 8) x80)))
(assert (not (= x20 (_ bv7 8))))
(assert (not (= x20 x40)))
(assert (not (= x20 x50)))
(assert (not (= x20 x60)))
(assert (not (= x20 (_ bv1 8))))
(assert (not (= x20 x80)))
(assert (not (= (_ bv7 8) x40)))
(assert (not (= (_ bv7 8) x50)))
(assert (not (= (_ bv7 8) x60)))
(assert (not (= (_ bv7 8) (_ bv1 8))))
(assert (not (= (_ bv7 8) x80)))
(assert (not (= x40 x50)))
(assert (not (= x40 x60)))
(assert (not (= x40 (_ bv1 8))))
(assert (not (= x40 x80)))
(assert (not (= x50 x60)))
(assert (not (= x50 (_ bv1 8))))
(assert (not (= x50 x80)))
(assert (not (= x60 (_ bv1 8))))
(assert (not (= x60 x80)))
(assert (not (= (_ bv1 8) x80)))
(assert (not (= (_ bv7 8) x11)))
(assert (not (= (_ bv7 8) x21)))
(assert (not (= (_ bv7 8) x31)))
(assert (not (= (_ bv7 8) x41)))
(assert (not (= (_ bv7 8) x51)))
(assert (not (= (_ bv7 8) (_ bv2 8))))
(assert (not (= (_ bv7 8) x71)))
(assert (not (= (_ bv7 8) (_ bv3 8))))
(assert (not (= x11 x21)))
(assert (not (= x11 x31)))
(assert (not (= x11 x41)))
(assert (not (= x11 x51)))
(assert (not (= x11 (_ bv2 8))))
(assert (not (= x11 x71)))
(assert (not (= x11 (_ bv3 8))))
(assert (not (= x21 x31)))
(assert (not (= x21 x41)))
(assert (not (= x21 x51)))
(assert (not (= x21 (_ bv2 8))))
(assert (not (= x21 x71)))
(assert (not (= x21 (_ bv3 8))))
(assert (not (= x31 x41)))
(assert (not (= x31 x51)))
(assert (not (= x31 (_ bv2 8))))
(assert (not (= x31 x71)))
(assert (not (= x31 (_ bv3 8))))
(assert (not (= x41 x51)))
(assert (not (= x41 (_ bv2 8))))
(assert (not (= x41 x71)))
(assert (not (= x41 (_ bv3 8))))
(assert (not (= x51 (_ bv2 8))))
(assert (not (= x51 x71)))
(assert (not (= x51 (_ bv3 8))))
(assert (not (= (_ bv2 8) x71)))
(assert (not (= (_ bv2 8) (_ bv3 8))))
(assert (not (= x71 (_ bv3 8))))
(assert (not (= x02 x12)))
(assert (not (= x02 x22)))
(assert (not (= x02 x32)))
(assert (not (= x02 (_ bv9 8))))
(assert (not (= x02 (_ bv6 8))))
(assert (not (= x02 x62)))
(assert (not (= x02 x72)))
(assert (not (= x02 x82)))
(assert (not (= x12 x22)))
(assert (not (= x12 x32)))
(assert (not (= x12 (_ bv9 8))))
(assert (not (= x12 (_ bv6 8))))
(assert (not (= x12 x62)))
(assert (not (= x12 x72)))
(assert (not (= x12 x82)))
(assert (not (= x22 x32)))
(assert (not (= x22 (_ bv9 8))))
(assert (not (= x22 (_ bv6 8))))
(assert (not (= x22 x62)))
(assert (not (= x22 x72)))
(assert (not (= x22 x82)))
(assert (not (= x32 (_ bv9 8))))
(assert (not (= x32 (_ bv6 8))))
(assert (not (= x32 x62)))
(assert (not (= x32 x72)))
(assert (not (= x32 x82)))
(assert (not (= (_ bv9 8) (_ bv6 8))))
(assert (not (= (_ bv9 8) x62)))
(assert (not (= (_ bv9 8) x72)))
(assert (not (= (_ bv9 8) x82)))
(assert (not (= (_ bv6 8) x62)))
(assert (not (= (_ bv6 8) x72)))
(assert (not (= (_ bv6 8) x82)))
(assert (not (= x62 x72)))
(assert (not (= x62 x82)))
(assert (not (= x72 x82)))
(assert (not (= (_ bv5 8) (_ bv7 8))))
(assert (not (= (_ bv5 8) x23)))
(assert (not (= (_ bv5 8) x33)))
(assert (not (= (_ bv5 8) x43)))
(assert (not (= (_ bv5 8) (_ bv1 8))))
(assert (not (= (_ bv5 8) x63)))
(assert (not (= (_ bv5 8) (_ bv9 8))))
(assert (not (= (_ bv5 8) x83)))
(assert (not (= (_ bv7 8) x23)))
(assert (not (= (_ bv7 8) x33)))
(assert (not (= (_ bv7 8) x43)))
(assert (not (= (_ bv7 8) (_ bv1 8))))
(assert (not (= (_ bv7 8) x63)))
(assert (not (= (_ bv7 8) (_ bv9 8))))
(assert (not (= (_ bv7 8) x83)))
(assert (not (= x23 x33)))
(assert (not (= x23 x43)))
(assert (not (= x23 (_ bv1 8))))
(assert (not (= x23 x63)))
(assert (not (= x23 (_ bv9 8))))
(assert (not (= x23 x83)))
(assert (not (= x33 x43)))
(assert (not (= x33 (_ bv1 8))))
(assert (not (= x33 x63)))
(assert (not (= x33 (_ bv9 8))))
(assert (not (= x33 x83)))
(assert (not (= x43 (_ bv1 8))))
(assert (not (= x43 x63)))
(assert (not (= x43 (_ bv9 8))))
(assert (not (= x43 x83)))
(assert (not (= (_ bv1 8) x63)))
(assert (not (= (_ bv1 8) (_ bv9 8))))
(assert (not (= (_ bv1 8) x83)))
(assert (not (= x63 (_ bv9 8))))
(assert (not (= x63 x83)))
(assert (not (= (_ bv9 8) x83)))
(assert (not (= x04 (_ bv8 8))))
(assert (not (= x04 x24)))
(assert (not (= x04 x34)))
(assert (not (= x04 x44)))
(assert (not (= x04 (_ bv3 8))))
(assert (not (= x04 (_ bv6 8))))
(assert (not (= x04 x74)))
(assert (not (= x04 x84)))
(assert (not (= (_ bv8 8) x24)))
(assert (not (= (_ bv8 8) x34)))
(assert (not (= (_ bv8 8) x44)))
(assert (not (= (_ bv8 8) (_ bv3 8))))
(assert (not (= (_ bv8 8) (_ bv6 8))))
(assert (not (= (_ bv8 8) x74)))
(assert (not (= (_ bv8 8) x84)))
(assert (not (= x24 x34)))
(assert (not (= x24 x44)))
(assert (not (= x24 (_ bv3 8))))
(assert (not (= x24 (_ bv6 8))))
(assert (not (= x24 x74)))
(assert (not (= x24 x84)))
(assert (not (= x34 x44)))
(assert (not (= x34 (_ bv3 8))))
(assert (not (= x34 (_ bv6 8))))
(assert (not (= x34 x74)))
(assert (not (= x34 x84)))
(assert (not (= x44 (_ bv3 8))))
(assert (not (= x44 (_ bv6 8))))
(assert (not (= x44 x74)))
(assert (not (= x44 x84)))
(assert (not (= (_ bv3 8) (_ bv6 8))))
(assert (not (= (_ bv3 8) x74)))
(assert (not (= (_ bv3 8) x84)))
(assert (not (= (_ bv6 8) x74)))
(assert (not (= (_ bv6 8) x84)))
(assert (not (= x74 x84)))
(assert (not (= x05 (_ bv9 8))))
(assert (not (= x05 (_ bv6 8))))
(assert (not (= x05 x35)))
(assert (not (= x05 (_ bv4 8))))
(assert (not (= x05 x55)))
(assert (not (= x05 x65)))
(assert (not (= x05 (_ bv5 8))))
(assert (not (= x05 (_ bv2 8))))
(assert (not (= (_ bv9 8) (_ bv6 8))))
(assert (not (= (_ bv9 8) x35)))
(assert (not (= (_ bv9 8) (_ bv4 8))))
(assert (not (= (_ bv9 8) x55)))
(assert (not (= (_ bv9 8) x65)))
(assert (not (= (_ bv9 8) (_ bv5 8))))
(assert (not (= (_ bv9 8) (_ bv2 8))))
(assert (not (= (_ bv6 8) x35)))
(assert (not (= (_ bv6 8) (_ bv4 8))))
(assert (not (= (_ bv6 8) x55)))
(assert (not (= (_ bv6 8) x65)))
(assert (not (= (_ bv6 8) (_ bv5 8))))
(assert (not (= (_ bv6 8) (_ bv2 8))))
(assert (not (= x35 (_ bv4 8))))
(assert (not (= x35 x55)))
(assert (not (= x35 x65)))
(assert (not (= x35 (_ bv5 8))))
(assert (not (= x35 (_ bv2 8))))
(assert (not (= (_ bv4 8) x55)))
(assert (not (= (_ bv4 8) x65)))
(assert (not (= (_ bv4 8) (_ bv5 8))))
(assert (not (= (_ bv4 8) (_ bv2 8))))
(assert (not (= x55 x65)))
(assert (not (= x55 (_ bv5 8))))
(assert (not (= x55 (_ bv2 8))))
(assert (not (= x65 (_ bv5 8))))
(assert (not (= x65 (_ bv2 8))))
(assert (not (= (_ bv5 8) (_ bv2 8))))
(assert (not (= (_ bv6 8) x16)))
(assert (not (= (_ bv6 8) (_ bv8 8))))
(assert (not (= (_ bv6 8) (_ bv1 8))))
(assert (not (= (_ bv6 8) x46)))
(assert (not (= (_ bv6 8) x56)))
(assert (not (= (_ bv6 8) x66)))
(assert (not (= (_ bv6 8) x76)))
(assert (not (= (_ bv6 8) (_ bv4 8))))
(assert (not (= x16 (_ bv8 8))))
(assert (not (= x16 (_ bv1 8))))
(assert (not (= x16 x46)))
(assert (not (= x16 x56)))
(assert (not (= x16 x66)))
(assert (not (= x16 x76)))
(assert (not (= x16 (_ bv4 8))))
(assert (not (= (_ bv8 8) (_ bv1 8))))
(assert (not (= (_ bv8 8) x46)))
(assert (not (= (_ bv8 8) x56)))
(assert (not (= (_ bv8 8) x66)))
(assert (not (= (_ bv8 8) x76)))
(assert (not (= (_ bv8 8) (_ bv4 8))))
(assert (not (= (_ bv1 8) x46)))
(assert (not (= (_ bv1 8) x56)))
(assert (not (= (_ bv1 8) x66)))
(assert (not (= (_ bv1 8) x76)))
(assert (not (= (_ bv1 8) (_ bv4 8))))
(assert (not (= x46 x56)))
(assert (not (= x46 x66)))
(assert (not (= x46 x76)))
(assert (not (= x46 (_ bv4 8))))
(assert (not (= x56 x66)))
(assert (not (= x56 x76)))
(assert (not (= x56 (_ bv4 8))))
(assert (not (= x66 x76)))
(assert (not (= x66 (_ bv4 8))))
(assert (not (= x76 (_ bv4 8))))
(assert (not (= (_ bv3 8) (_ bv1 8))))
(assert (not (= (_ bv3 8) x27)))
(assert (not (= (_ bv3 8) x37)))
(assert (not (= (_ bv3 8) (_ bv6 8))))
(assert (not (= (_ bv3 8) (_ bv5 8))))
(assert (not (= (_ bv3 8) x67)))
(assert (not (= (_ bv3 8) (_ bv2 8))))
(assert (not (= (_ bv3 8) (_ bv9 8))))
(assert (not (= (_ bv1 8) x27)))
(assert (not (= (_ bv1 8) x37)))
(assert (not (= (_ bv1 8) (_ bv6 8))))
(assert (not (= (_ bv1 8) (_ bv5 8))))
(assert (not (= (_ bv1 8) x67)))
(assert (not (= (_ bv1 8) (_ bv2 8))))
(assert (not (= (_ bv1 8) (_ bv9 8))))
(assert (not (= x27 x37)))
(assert (not (= x27 (_ bv6 8))))
(assert (not (= x27 (_ bv5 8))))
(assert (not (= x27 x67)))
(assert (not (= x27 (_ bv2 8))))
(assert (not (= x27 (_ bv9 8))))
(assert (not (= x37 (_ bv6 8))))
(assert (not (= x37 (_ bv5 8))))
(assert (not (= x37 x67)))
(assert (not (= x37 (_ bv2 8))))
(assert (not (= x37 (_ bv9 8))))
(assert (not (= (_ bv6 8) (_ bv5 8))))
(assert (not (= (_ bv6 8) x67)))
(assert (not (= (_ bv6 8) (_ bv2 8))))
(assert (not (= (_ bv6 8) (_ bv9 8))))
(assert (not (= (_ bv5 8) x67)))
(assert (not (= (_ bv5 8) (_ bv2 8))))
(assert (not (= (_ bv5 8) (_ bv9 8))))
(assert (not (= x67 (_ bv2 8))))
(assert (not (= x67 (_ bv9 8))))
(assert (not (= (_ bv2 8) (_ bv9 8))))
(assert (not (= x08 x18)))
(assert (not (= x08 (_ bv4 8))))
(assert (not (= x08 x38)))
(assert (not (= x08 (_ bv8 8))))
(assert (not (= x08 x58)))
(assert (not (= x08 x68)))
(assert (not (= x08 x78)))
(assert (not (= x08 (_ bv7 8))))
(assert (not (= x18 (_ bv4 8))))
(assert (not (= x18 x38)))
(assert (not (= x18 (_ bv8 8))))
(assert (not (= x18 x58)))
(assert (not (= x18 x68)))
(assert (not (= x18 x78)))
(assert (not (= x18 (_ bv7 8))))
(assert (not (= (_ bv4 8) x38)))
(assert (not (= (_ bv4 8) (_ bv8 8))))
(assert (not (= (_ bv4 8) x58)))
(assert (not (= (_ bv4 8) x68)))
(assert (not (= (_ bv4 8) x78)))
(assert (not (= (_ bv4 8) (_ bv7 8))))
(assert (not (= x38 (_ bv8 8))))
(assert (not (= x38 x58)))
(assert (not (= x38 x68)))
(assert (not (= x38 x78)))
(assert (not (= x38 (_ bv7 8))))
(assert (not (= (_ bv8 8) x58)))
(assert (not (= (_ bv8 8) x68)))
(assert (not (= (_ bv8 8) x78)))
(assert (not (= (_ bv8 8) (_ bv7 8))))
(assert (not (= x58 x68)))
(assert (not (= x58 x78)))
(assert (not (= x58 (_ bv7 8))))
(assert (not (= x68 x78)))
(assert (not (= x68 (_ bv7 8))))
(assert (not (= x78 (_ bv7 8))))
(assert (not (= (_ bv2 8) (_ bv7 8))))
(assert (not (= (_ bv2 8) x02)))
(assert (not (= (_ bv2 8) (_ bv4 8))))
(assert (not (= (_ bv2 8) x11)))
(assert (not (= (_ bv2 8) x12)))
(assert (not (= (_ bv2 8) x20)))
(assert (not (= (_ bv2 8) x21)))
(assert (not (= (_ bv2 8) x22)))
(assert (not (= (_ bv7 8) x02)))
(assert (not (= (_ bv7 8) (_ bv4 8))))
(assert (not (= (_ bv7 8) x11)))
(assert (not (= (_ bv7 8) x12)))
(assert (not (= (_ bv7 8) x20)))
(assert (not (= (_ bv7 8) x21)))
(assert (not (= (_ bv7 8) x22)))
(assert (not (= x02 (_ bv4 8))))
(assert (not (= x02 x11)))
(assert (not (= x02 x12)))
(assert (not (= x02 x20)))
(assert (not (= x02 x21)))
(assert (not (= x02 x22)))
(assert (not (= (_ bv4 8) x11)))
(assert (not (= (_ bv4 8) x12)))
(assert (not (= (_ bv4 8) x20)))
(assert (not (= (_ bv4 8) x21)))
(assert (not (= (_ bv4 8) x22)))
(assert (not (= x11 x12)))
(assert (not (= x11 x20)))
(assert (not (= x11 x21)))
(assert (not (= x11 x22)))
(assert (not (= x12 x20)))
(assert (not (= x12 x21)))
(assert (not (= x12 x22)))
(assert (not (= x20 x21)))
(assert (not (= x20 x22)))
(assert (not (= x21 x22)))
(assert (not (= (_ bv5 8) x04)))
(assert (not (= (_ bv5 8) x05)))
(assert (not (= (_ bv5 8) (_ bv7 8))))
(assert (not (= (_ bv5 8) (_ bv8 8))))
(assert (not (= (_ bv5 8) (_ bv9 8))))
(assert (not (= (_ bv5 8) x23)))
(assert (not (= (_ bv5 8) x24)))
(assert (not (= (_ bv5 8) (_ bv6 8))))
(assert (not (= x04 x05)))
(assert (not (= x04 (_ bv7 8))))
(assert (not (= x04 (_ bv8 8))))
(assert (not (= x04 (_ bv9 8))))
(assert (not (= x04 x23)))
(assert (not (= x04 x24)))
(assert (not (= x04 (_ bv6 8))))
(assert (not (= x05 (_ bv7 8))))
(assert (not (= x05 (_ bv8 8))))
(assert (not (= x05 (_ bv9 8))))
(assert (not (= x05 x23)))
(assert (not (= x05 x24)))
(assert (not (= x05 (_ bv6 8))))
(assert (not (= (_ bv7 8) (_ bv8 8))))
(assert (not (= (_ bv7 8) (_ bv9 8))))
(assert (not (= (_ bv7 8) x23)))
(assert (not (= (_ bv7 8) x24)))
(assert (not (= (_ bv7 8) (_ bv6 8))))
(assert (not (= (_ bv8 8) (_ bv9 8))))
(assert (not (= (_ bv8 8) x23)))
(assert (not (= (_ bv8 8) x24)))
(assert (not (= (_ bv8 8) (_ bv6 8))))
(assert (not (= (_ bv9 8) x23)))
(assert (not (= (_ bv9 8) x24)))
(assert (not (= (_ bv9 8) (_ bv6 8))))
(assert (not (= x23 x24)))
(assert (not (= x23 (_ bv6 8))))
(assert (not (= x24 (_ bv6 8))))
(assert (not (= (_ bv6 8) (_ bv3 8))))
(assert (not (= (_ bv6 8) x08)))
(assert (not (= (_ bv6 8) x16)))
(assert (not (= (_ bv6 8) (_ bv1 8))))
(assert (not (= (_ bv6 8) x18)))
(assert (not (= (_ bv6 8) (_ bv8 8))))
(assert (not (= (_ bv6 8) x27)))
(assert (not (= (_ bv6 8) (_ bv4 8))))
(assert (not (= (_ bv3 8) x08)))
(assert (not (= (_ bv3 8) x16)))
(assert (not (= (_ bv3 8) (_ bv1 8))))
(assert (not (= (_ bv3 8) x18)))
(assert (not (= (_ bv3 8) (_ bv8 8))))
(assert (not (= (_ bv3 8) x27)))
(assert (not (= (_ bv3 8) (_ bv4 8))))
(assert (not (= x08 x16)))
(assert (not (= x08 (_ bv1 8))))
(assert (not (= x08 x18)))
(assert (not (= x08 (_ bv8 8))))
(assert (not (= x08 x27)))
(assert (not (= x08 (_ bv4 8))))
(assert (not (= x16 (_ bv1 8))))
(assert (not (= x16 x18)))
(assert (not (= x16 (_ bv8 8))))
(assert (not (= x16 x27)))
(assert (not (= x16 (_ bv4 8))))
(assert (not (= (_ bv1 8) x18)))
(assert (not (= (_ bv1 8) (_ bv8 8))))
(assert (not (= (_ bv1 8) x27)))
(assert (not (= (_ bv1 8) (_ bv4 8))))
(assert (not (= x18 (_ bv8 8))))
(assert (not (= x18 x27)))
(assert (not (= x18 (_ bv4 8))))
(assert (not (= (_ bv8 8) x27)))
(assert (not (= (_ bv8 8) (_ bv4 8))))
(assert (not (= x27 (_ bv4 8))))
(assert (not (= (_ bv7 8) x31)))
(assert (not (= (_ bv7 8) x32)))
(assert (not (= (_ bv7 8) x40)))
(assert (not (= (_ bv7 8) x41)))
(assert (not (= (_ bv7 8) (_ bv9 8))))
(assert (not (= (_ bv7 8) x50)))
(assert (not (= (_ bv7 8) x51)))
(assert (not (= (_ bv7 8) (_ bv6 8))))
(assert (not (= x31 x32)))
(assert (not (= x31 x40)))
(assert (not (= x31 x41)))
(assert (not (= x31 (_ bv9 8))))
(assert (not (= x31 x50)))
(assert (not (= x31 x51)))
(assert (not (= x31 (_ bv6 8))))
(assert (not (= x32 x40)))
(assert (not (= x32 x41)))
(assert (not (= x32 (_ bv9 8))))
(assert (not (= x32 x50)))
(assert (not (= x32 x51)))
(assert (not (= x32 (_ bv6 8))))
(assert (not (= x40 x41)))
(assert (not (= x40 (_ bv9 8))))
(assert (not (= x40 x50)))
(assert (not (= x40 x51)))
(assert (not (= x40 (_ bv6 8))))
(assert (not (= x41 (_ bv9 8))))
(assert (not (= x41 x50)))
(assert (not (= x41 x51)))
(assert (not (= x41 (_ bv6 8))))
(assert (not (= (_ bv9 8) x50)))
(assert (not (= (_ bv9 8) x51)))
(assert (not (= (_ bv9 8) (_ bv6 8))))
(assert (not (= x50 x51)))
(assert (not (= x50 (_ bv6 8))))
(assert (not (= x51 (_ bv6 8))))
(assert (not (= x33 x34)))
(assert (not (= x33 x35)))
(assert (not (= x33 x43)))
(assert (not (= x33 x44)))
(assert (not (= x33 (_ bv4 8))))
(assert (not (= x33 (_ bv1 8))))
(assert (not (= x33 (_ bv3 8))))
(assert (not (= x33 x55)))
(assert (not (= x34 x35)))
(assert (not (= x34 x43)))
(assert (not (= x34 x44)))
(assert (not (= x34 (_ bv4 8))))
(assert (not (= x34 (_ bv1 8))))
(assert (not (= x34 (_ bv3 8))))
(assert (not (= x34 x55)))
(assert (not (= x35 x43)))
(assert (not (= x35 x44)))
(assert (not (= x35 (_ bv4 8))))
(assert (not (= x35 (_ bv1 8))))
(assert (not (= x35 (_ bv3 8))))
(assert (not (= x35 x55)))
(assert (not (= x43 x44)))
(assert (not (= x43 (_ bv4 8))))
(assert (not (= x43 (_ bv1 8))))
(assert (not (= x43 (_ bv3 8))))
(assert (not (= x43 x55)))
(assert (not (= x44 (_ bv4 8))))
(assert (not (= x44 (_ bv1 8))))
(assert (not (= x44 (_ bv3 8))))
(assert (not (= x44 x55)))
(assert (not (= (_ bv4 8) (_ bv1 8))))
(assert (not (= (_ bv4 8) (_ bv3 8))))
(assert (not (= (_ bv4 8) x55)))
(assert (not (= (_ bv1 8) (_ bv3 8))))
(assert (not (= (_ bv1 8) x55)))
(assert (not (= (_ bv3 8) x55)))
(assert (not (= (_ bv1 8) x37)))
(assert (not (= (_ bv1 8) x38)))
(assert (not (= (_ bv1 8) x46)))
(assert (not (= (_ bv1 8) (_ bv6 8))))
(assert (not (= (_ bv1 8) (_ bv8 8))))
(assert (not (= (_ bv1 8) x56)))
(assert (not (= (_ bv1 8) (_ bv5 8))))
(assert (not (= (_ bv1 8) x58)))
(assert (not (= x37 x38)))
(assert (not (= x37 x46)))
(assert (not (= x37 (_ bv6 8))))
(assert (not (= x37 (_ bv8 8))))
(assert (not (= x37 x56)))
(assert (not (= x37 (_ bv5 8))))
(assert (not (= x37 x58)))
(assert (not (= x38 x46)))
(assert (not (= x38 (_ bv6 8))))
(assert (not (= x38 (_ bv8 8))))
(assert (not (= x38 x56)))
(assert (not (= x38 (_ bv5 8))))
(assert (not (= x38 x58)))
(assert (not (= x46 (_ bv6 8))))
(assert (not (= x46 (_ bv8 8))))
(assert (not (= x46 x56)))
(assert (not (= x46 (_ bv5 8))))
(assert (not (= x46 x58)))
(assert (not (= (_ bv6 8) (_ bv8 8))))
(assert (not (= (_ bv6 8) x56)))
(assert (not (= (_ bv6 8) (_ bv5 8))))
(assert (not (= (_ bv6 8) x58)))
(assert (not (= (_ bv8 8) x56)))
(assert (not (= (_ bv8 8) (_ bv5 8))))
(assert (not (= (_ bv8 8) x58)))
(assert (not (= x56 (_ bv5 8))))
(assert (not (= x56 x58)))
(assert (not (= (_ bv5 8) x58)))
(assert (not (= x60 (_ bv2 8))))
(assert (not (= x60 x62)))
(assert (not (= x60 (_ bv1 8))))
(assert (not (= x60 x71)))
(assert (not (= x60 x72)))
(assert (not (= x60 x80)))
(assert (not (= x60 (_ bv3 8))))
(assert (not (= x60 x82)))
(assert (not (= (_ bv2 8) x62)))
(assert (not (= (_ bv2 8) (_ bv1 8))))
(assert (not (= (_ bv2 8) x71)))
(assert (not (= (_ bv2 8) x72)))
(assert (not (= (_ bv2 8) x80)))
(assert (not (= (_ bv2 8) (_ bv3 8))))
(assert (not (= (_ bv2 8) x82)))
(assert (not (= x62 (_ bv1 8))))
(assert (not (= x62 x71)))
(assert (not (= x62 x72)))
(assert (not (= x62 x80)))
(assert (not (= x62 (_ bv3 8))))
(assert (not (= x62 x82)))
(assert (not (= (_ bv1 8) x71)))
(assert (not (= (_ bv1 8) x72)))
(assert (not (= (_ bv1 8) x80)))
(assert (not (= (_ bv1 8) (_ bv3 8))))
(assert (not (= (_ bv1 8) x82)))
(assert (not (= x71 x72)))
(assert (not (= x71 x80)))
(assert (not (= x71 (_ bv3 8))))
(assert (not (= x71 x82)))
(assert (not (= x72 x80)))
(assert (not (= x72 (_ bv3 8))))
(assert (not (= x72 x82)))
(assert (not (= x80 (_ bv3 8))))
(assert (not (= x80 x82)))
(assert (not (= (_ bv3 8) x82)))
(assert (not (= x63 (_ bv6 8))))
(assert (not (= x63 x65)))
(assert (not (= x63 (_ bv9 8))))
(assert (not (= x63 x74)))
(assert (not (= x63 (_ bv5 8))))
(assert (not (= x63 x83)))
(assert (not (= x63 x84)))
(assert (not (= x63 (_ bv2 8))))
(assert (not (= (_ bv6 8) x65)))
(assert (not (= (_ bv6 8) (_ bv9 8))))
(assert (not (= (_ bv6 8) x74)))
(assert (not (= (_ bv6 8) (_ bv5 8))))
(assert (not (= (_ bv6 8) x83)))
(assert (not (= (_ bv6 8) x84)))
(assert (not (= (_ bv6 8) (_ bv2 8))))
(assert (not (= x65 (_ bv9 8))))
(assert (not (= x65 x74)))
(assert (not (= x65 (_ bv5 8))))
(assert (not (= x65 x83)))
(assert (not (= x65 x84)))
(assert (not (= x65 (_ bv2 8))))
(assert (not (= (_ bv9 8) x74)))
(assert (not (= (_ bv9 8) (_ bv5 8))))
(assert (not (= (_ bv9 8) x83)))
(assert (not (= (_ bv9 8) x84)))
(assert (not (= (_ bv9 8) (_ bv2 8))))
(assert (not (= x74 (_ bv5 8))))
(assert (not (= x74 x83)))
(assert (not (= x74 x84)))
(assert (not (= x74 (_ bv2 8))))
(assert (not (= (_ bv5 8) x83)))
(assert (not (= (_ bv5 8) x84)))
(assert (not (= (_ bv5 8) (_ bv2 8))))
(assert (not (= x83 x84)))
(assert (not (= x83 (_ bv2 8))))
(assert (not (= x84 (_ bv2 8))))
(assert (not (= x66 x67)))
(assert (not (= x66 x68)))
(assert (not (= x66 x76)))
(assert (not (= x66 (_ bv2 8))))
(assert (not (= x66 x78)))
(assert (not (= x66 (_ bv4 8))))
(assert (not (= x66 (_ bv9 8))))
(assert (not (= x66 (_ bv7 8))))
(assert (not (= x67 x68)))
(assert (not (= x67 x76)))
(assert (not (= x67 (_ bv2 8))))
(assert (not (= x67 x78)))
(assert (not (= x67 (_ bv4 8))))
(assert (not (= x67 (_ bv9 8))))
(assert (not (= x67 (_ bv7 8))))
(assert (not (= x68 x76)))
(assert (not (= x68 (_ bv2 8))))
(assert (not (= x68 x78)))
(assert (not (= x68 (_ bv4 8))))
(assert (not (= x68 (_ bv9 8))))
(assert (not (= x68 (_ bv7 8))))
(assert (not (= x76 (_ bv2 8))))
(assert (not (= x76 x78)))
(assert (not (= x76 (_ bv4 8))))
(assert (not (= x76 (_ bv9 8))))
(assert (not (= x76 (_ bv7 8))))
(assert (not (= (_ bv2 8) x78)))
(assert (not (= (_ bv2 8) (_ bv4 8))))
(assert (not (= (_ bv2 8) (_ bv9 8))))
(assert (not (= (_ bv2 8) (_ bv7 8))))
(assert (not (= x78 (_ bv4 8))))
(assert (not (= x78 (_ bv9 8))))
(assert (not (= x78 (_ bv7 8))))
(assert (not (= (_ bv4 8) (_ bv9 8))))
(assert (not (= (_ bv4 8) (_ bv7 8))))
(assert (not (= (_ bv9 8) (_ bv7 8))))
(check-sat)
(exit)
